p cnf 198 503
a 2 3 8 10 17 19 26 28 106 118 44 141 155 163 174 191 1 7 16 25 33 37 43 49 55 0
d 60 2 3 0
d 99 16 25 0
d 86 1 7 0
d 130 43 49 0
d 116 33 37 0
d 151 155 55 0
d 4 2 3 0
d 5 1 2 3 0
d 6 1 2 3 0
d 9 8 0
d 11 10 0
d 12 8 10 0
d 13 7 8 10 0
d 14 7 8 10 0
d 15 1 2 3 7 8 10 0
d 18 17 0
d 20 19 0
d 21 17 19 0
d 22 16 17 19 0
d 23 16 17 19 0
d 24 1 2 3 7 8 10 16 17 19 0
d 27 26 0
d 29 26 28 0
d 30 25 26 28 0
d 31 25 26 28 0
d 32 1 2 3 7 8 10 16 17 19 25 26 28 0
d 34 33 17 19 0
d 35 33 17 19 0
d 36 1 2 3 7 8 10 16 17 19 25 26 28 33 0
d 38 28 0
d 39 26 28 0
d 40 37 26 28 0
d 41 37 26 28 0
d 42 1 2 3 7 8 10 16 17 19 25 26 28 33 37 0
d 45 44 2 3 0
d 46 43 44 2 3 0
d 47 43 44 2 3 0
d 48 1 2 3 7 8 10 16 17 19 25 26 28 33 37 43 44 0
d 50 8 10 17 0
d 51 8 10 17 19 0
d 52 49 8 10 17 19 0
d 53 49 8 10 17 19 0
d 54 1 2 3 7 8 10 16 17 19 25 26 28 33 37 43 44 49 0
d 56 55 2 3 0
d 57 55 2 3 0
d 58 1 2 3 7 8 10 16 17 19 25 26 28 33 37 43 44 49 55 0
d 59 2 0
d 61 2 0
d 62 2 3 0
d 63 2 3 0
d 64 2 3 0
d 65 8 2 3 0
d 66 8 2 0
d 67 3 0
d 68 8 2 3 0
d 69 8 2 3 0
d 70 2 3 8 0
d 71 2 3 8 0
d 72 2 3 8 10 0
d 73 2 3 0
d 74 2 3 8 0
d 75 2 3 8 10 0
d 76 2 3 8 10 0
d 77 2 3 8 10 0
d 78 17 2 3 0
d 79 8 10 17 2 3 0
d 80 17 2 0
d 81 17 2 3 0
d 82 8 10 17 2 3 0
d 83 8 10 17 2 3 0
d 84 2 3 8 10 17 0
d 85 17 19 0
d 87 17 19 1 7 0
d 88 2 3 8 10 0
d 89 17 19 2 3 8 10 0
d 90 17 19 1 7 2 3 8 10 0
d 91 2 3 8 10 17 19 1 7 0
d 92 26 2 3 0
d 93 26 2 3 8 10 17 19 0
d 94 26 2 0
d 95 26 2 3 0
d 96 26 2 3 8 10 17 19 0
d 97 26 2 3 8 10 17 19 0
d 98 2 3 8 10 17 19 1 7 26 0
d 100 1 7 16 25 0
d 101 17 19 26 0
d 102 17 19 26 28 0
d 103 2 3 8 10 17 19 26 28 0
d 104 1 7 16 25 2 3 8 10 17 19 26 28 0
d 105 2 3 8 10 17 19 1 7 26 16 25 28 0
d 107 106 2 3 0
d 108 26 28 106 2 3 0
d 109 8 10 17 19 26 28 106 2 3 0
d 110 106 2 0
d 111 106 2 3 0
d 112 26 28 106 2 3 0
d 113 8 10 17 19 26 28 106 2 3 0
d 114 8 10 17 19 26 28 106 2 3 0
d 115 2 3 8 10 17 19 1 7 26 16 25 28 106 0
d 117 106 0
d 119 106 118 0
d 120 106 118 1 7 0
d 121 33 37 106 118 1 7 0
d 122 17 19 26 28 0
d 123 106 118 2 3 8 10 0
d 124 17 19 26 28 106 118 2 3 8 10 0
d 125 33 37 106 118 1 7 17 19 26 28 2 3 8 10 0
d 126 2 3 8 10 17 19 1 7 26 16 25 28 106 33 37 118 0
d 127 26 28 106 0
d 128 118 0
d 129 26 28 106 118 0
d 131 26 28 106 118 43 49 0
d 132 44 2 0
d 133 44 2 3 0
d 134 44 2 3 8 10 17 19 0
d 135 26 28 106 118 44 2 3 8 10 17 19 0
d 136 26 28 106 118 43 49 44 2 3 8 10 17 19 0
d 137 2 3 8 10 17 19 1 7 26 16 25 28 106 33 37 118 43 49 44 0
d 138 106 118 0
d 139 44 0
d 140 106 118 44 0
d 142 106 118 44 141 0
d 143 1 7 33 37 0
d 144 106 118 44 141 1 7 33 37 0
d 145 2 3 8 10 17 19 26 28 0
d 146 106 118 44 141 2 3 8 10 17 19 26 28 0
d 147 106 118 44 141 1 7 33 37 2 3 8 10 17 19 26 28 0
d 148 2 3 8 10 17 19 1 7 26 16 25 28 106 33 37 118 43 49 44 141 0
d 149 141 0
d 150 44 141 0
d 152 44 141 155 55 0
d 153 8 10 17 19 26 28 106 118 0
d 154 44 141 155 55 8 10 17 19 26 28 106 118 0
d 156 155 2 0
d 157 155 2 3 0
d 158 44 141 155 2 3 0
d 159 44 141 155 2 3 8 10 17 19 26 28 106 118 0
d 160 44 141 155 55 8 10 17 19 26 28 106 118 2 3 0
d 161 2 3 8 10 17 19 1 7 26 16 25 28 106 33 37 118 43 49 44 141 155 55 0
d 162 155 0
d 164 155 163 0
d 165 155 163 1 7 0
d 166 106 118 44 141 0
d 167 33 37 106 118 44 141 0
d 168 155 163 1 7 33 37 106 118 44 141 0
d 169 155 163 2 3 8 10 0
d 170 17 19 26 28 106 118 44 141 0
d 171 155 163 2 3 8 10 17 19 26 28 106 118 44 141 0
d 172 155 163 1 7 33 37 106 118 44 141 2 3 8 10 17 19 26 28 0
d 173 2 3 8 10 17 19 1 7 26 16 25 28 106 33 37 118 43 49 44 141 155 55 163 0
d 175 174 2 3 0
d 176 174 2 3 8 10 17 19 0
d 177 44 141 155 0
d 178 163 0
d 179 44 141 155 163 0
d 180 26 28 106 118 44 141 155 163 0
d 181 174 2 3 8 10 17 19 26 28 106 118 44 141 155 163 0
d 182 174 2 0
d 183 174 2 3 0
d 184 174 2 3 8 10 17 19 0
d 185 174 2 3 8 10 17 19 26 28 106 118 44 141 155 163 0
d 186 174 2 3 8 10 17 19 26 28 106 118 44 141 155 163 0
d 187 2 3 8 10 17 19 1 7 26 16 25 28 106 33 37 118 43 49 44 141 155 55 163 174 0
d 188 155 163 0
d 189 174 0
d 190 155 163 174 0
d 192 155 163 174 191 0
d 193 106 118 44 141 155 163 174 191 0
d 194 1 7 33 37 106 118 44 141 155 163 174 191 0
d 195 2 3 8 10 17 19 26 28 106 118 44 141 155 163 174 191 0
d 196 1 7 33 37 106 118 44 141 155 163 174 191 2 3 8 10 17 19 26 28 0
d 197 2 3 8 10 17 19 1 7 26 16 25 28 106 33 37 118 43 49 44 141 155 55 163 174 191 0
d 198 1 2 3 7 8 10 16 17 19 25 26 28 33 37 43 44 49 55 106 118 141 155 163 174 191 0
-4 2 0
-4 3 0
4 -2 -3 0
5 -1 -4 0
5 1 4 0
-5 -1 4 0
-5 1 -4 0
6 5 0
-6 -5 0
9 8 0
-9 -8 0
11 10 0
-11 -10 0
-12 9 0
-12 11 0
12 -9 -11 0
13 -7 -12 0
13 7 12 0
-13 -7 12 0
-13 7 -12 0
14 13 0
-14 -13 0
15 -6 0
15 -14 0
-15 6 14 0
18 17 0
-18 -17 0
20 19 0
-20 -19 0
-21 18 0
-21 20 0
21 -18 -20 0
22 -16 -21 0
22 16 21 0
-22 -16 21 0
-22 16 -21 0
23 22 0
-23 -22 0
24 -15 0
24 -23 0
-24 15 23 0
27 26 0
-27 -26 0
-29 27 0
-29 28 0
29 -27 -28 0
30 -25 -29 0
30 25 29 0
-30 -25 29 0
-30 25 -29 0
31 30 0
-31 -30 0
32 -24 0
32 -31 0
-32 24 31 0
34 -33 -21 0
34 33 21 0
-34 -33 21 0
-34 33 -21 0
35 34 0
-35 -34 0
36 -32 0
36 -35 0
-36 32 35 0
38 28 0
-38 -28 0
-39 27 0
-39 38 0
39 -27 -38 0
40 -37 -39 0
40 37 39 0
-40 -37 39 0
-40 37 -39 0
41 40 0
-41 -40 0
42 -36 0
42 -41 0
-42 36 41 0
-45 44 0
-45 4 0
45 -44 -4 0
46 -43 -45 0
46 43 45 0
-46 -43 45 0
-46 43 -45 0
47 46 0
-47 -46 0
48 -42 0
48 -47 0
-48 42 47 0
-50 12 0
-50 18 0
50 -12 -18 0
-51 50 0
-51 20 0
51 -50 -20 0
52 -49 -51 0
52 49 51 0
-52 -49 51 0
-52 49 -51 0
53 52 0
-53 -52 0
54 -48 0
54 -53 0
-54 48 53 0
56 -55 -4 0
56 55 4 0
-56 -55 4 0
-56 55 -4 0
57 56 0
-57 -56 0
58 -54 0
58 -57 0
-58 54 57 0
59 -2 -2 0
59 2 2 0
-59 -2 2 0
-59 2 -2 0
61 2 0
-61 -2 0
-62 61 0
-62 3 0
62 -61 -3 0
63 -60 -62 0
63 60 62 0
-63 -60 62 0
-63 60 -62 0
-64 59 0
-64 63 0
64 -59 -63 0
-65 8 0
-65 4 0
65 -8 -4 0
-66 8 0
-66 61 0
66 -8 -61 0
67 3 0
-67 -3 0
-68 66 0
-68 67 0
68 -66 -67 0
69 -65 -68 0
69 65 68 0
-69 -65 68 0
-69 65 -68 0
-70 64 0
-70 69 0
70 -64 -69 0
-71 4 0
-71 9 0
71 -4 -9 0
-72 71 0
-72 10 0
72 -71 -10 0
-73 61 0
-73 67 0
73 -61 -67 0
-74 73 0
-74 9 0
74 -73 -9 0
-75 74 0
-75 10 0
75 -74 -10 0
76 -72 -75 0
76 72 75 0
-76 -72 75 0
-76 72 -75 0
-77 70 0
-77 76 0
77 -70 -76 0
-78 17 0
-78 4 0
78 -17 -4 0
-79 12 0
-79 78 0
79 -12 -78 0
-80 17 0
-80 61 0
80 -17 -61 0
-81 80 0
-81 67 0
81 -80 -67 0
-82 12 0
-82 81 0
82 -12 -81 0
83 -79 -82 0
83 79 82 0
-83 -79 82 0
-83 79 -82 0
-84 77 0
-84 83 0
84 -77 -83 0
-85 18 0
-85 19 0
85 -18 -19 0
-87 85 0
-87 86 0
87 -85 -86 0
-88 74 0
-88 11 0
88 -74 -11 0
-89 85 0
-89 88 0
89 -85 -88 0
90 -87 -89 0
90 87 89 0
-90 -87 89 0
-90 87 -89 0
-91 84 0
-91 90 0
91 -84 -90 0
-92 26 0
-92 4 0
92 -26 -4 0
-93 92 0
-93 51 0
93 -92 -51 0
-94 26 0
-94 61 0
94 -26 -61 0
-95 94 0
-95 67 0
95 -94 -67 0
-96 95 0
-96 51 0
96 -95 -51 0
97 -93 -96 0
97 93 96 0
-97 -93 96 0
-97 93 -96 0
-98 91 0
-98 97 0
98 -91 -97 0
-100 86 0
-100 99 0
100 -86 -99 0
-101 21 0
-101 27 0
101 -21 -27 0
-102 101 0
-102 28 0
102 -101 -28 0
-103 88 0
-103 102 0
103 -88 -102 0
104 -100 -103 0
104 100 103 0
-104 -100 103 0
-104 100 -103 0
-105 98 0
-105 104 0
105 -98 -104 0
-107 106 0
-107 4 0
107 -106 -4 0
-108 39 0
-108 107 0
108 -39 -107 0
-109 51 0
-109 108 0
109 -51 -108 0
-110 106 0
-110 61 0
110 -106 -61 0
-111 110 0
-111 67 0
111 -110 -67 0
-112 39 0
-112 111 0
112 -39 -111 0
-113 51 0
-113 112 0
113 -51 -112 0
114 -109 -113 0
114 109 113 0
-114 -109 113 0
-114 109 -113 0
-115 105 0
-115 114 0
115 -105 -114 0
117 106 0
-117 -106 0
-119 117 0
-119 118 0
119 -117 -118 0
-120 119 0
-120 86 0
120 -119 -86 0
-121 116 0
-121 120 0
121 -116 -120 0
-122 101 0
-122 38 0
122 -101 -38 0
-123 119 0
-123 88 0
123 -119 -88 0
-124 122 0
-124 123 0
124 -122 -123 0
125 -121 -124 0
125 121 124 0
-125 -121 124 0
-125 121 -124 0
-126 115 0
-126 125 0
126 -115 -125 0
-127 39 0
-127 117 0
127 -39 -117 0
128 118 0
-128 -118 0
-129 127 0
-129 128 0
129 -127 -128 0
-131 129 0
-131 130 0
131 -129 -130 0
-132 44 0
-132 61 0
132 -44 -61 0
-133 132 0
-133 67 0
133 -132 -67 0
-134 133 0
-134 51 0
134 -133 -51 0
-135 129 0
-135 134 0
135 -129 -134 0
136 -131 -135 0
136 131 135 0
-136 -131 135 0
-136 131 -135 0
-137 126 0
-137 136 0
137 -126 -136 0
-138 117 0
-138 128 0
138 -117 -128 0
139 44 0
-139 -44 0
-140 138 0
-140 139 0
140 -138 -139 0
-142 140 0
-142 141 0
142 -140 -141 0
-143 86 0
-143 116 0
143 -86 -116 0
-144 142 0
-144 143 0
144 -142 -143 0
-145 88 0
-145 122 0
145 -88 -122 0
-146 142 0
-146 145 0
146 -142 -145 0
147 -144 -146 0
147 144 146 0
-147 -144 146 0
-147 144 -146 0
-148 137 0
-148 147 0
148 -137 -147 0
149 141 0
-149 -141 0
-150 139 0
-150 149 0
150 -139 -149 0
-152 150 0
-152 151 0
152 -150 -151 0
-153 51 0
-153 129 0
153 -51 -129 0
-154 152 0
-154 153 0
154 -152 -153 0
-156 155 0
-156 61 0
156 -155 -61 0
-157 156 0
-157 67 0
157 -156 -67 0
-158 150 0
-158 157 0
158 -150 -157 0
-159 158 0
-159 153 0
159 -158 -153 0
160 -154 -159 0
160 154 159 0
-160 -154 159 0
-160 154 -159 0
-161 148 0
-161 160 0
161 -148 -160 0
162 155 0
-162 -155 0
-164 162 0
-164 163 0
164 -162 -163 0
-165 164 0
-165 86 0
165 -164 -86 0
-166 140 0
-166 149 0
166 -140 -149 0
-167 116 0
-167 166 0
167 -116 -166 0
-168 165 0
-168 167 0
168 -165 -167 0
-169 164 0
-169 88 0
169 -164 -88 0
-170 122 0
-170 166 0
170 -122 -166 0
-171 169 0
-171 170 0
171 -169 -170 0
172 -168 -171 0
172 168 171 0
-172 -168 171 0
-172 168 -171 0
-173 161 0
-173 172 0
173 -161 -172 0
-175 174 0
-175 4 0
175 -174 -4 0
-176 175 0
-176 51 0
176 -175 -51 0
-177 150 0
-177 162 0
177 -150 -162 0
178 163 0
-178 -163 0
-179 177 0
-179 178 0
179 -177 -178 0
-180 129 0
-180 179 0
180 -129 -179 0
-181 176 0
-181 180 0
181 -176 -180 0
-182 174 0
-182 61 0
182 -174 -61 0
-183 182 0
-183 67 0
183 -182 -67 0
-184 183 0
-184 51 0
184 -183 -51 0
-185 184 0
-185 180 0
185 -184 -180 0
186 -181 -185 0
186 181 185 0
-186 -181 185 0
-186 181 -185 0
-187 173 0
-187 186 0
187 -173 -186 0
-188 162 0
-188 178 0
188 -162 -178 0
189 174 0
-189 -174 0
-190 188 0
-190 189 0
190 -188 -189 0
-192 190 0
-192 191 0
192 -190 -191 0
-193 166 0
-193 192 0
193 -166 -192 0
-194 143 0
-194 193 0
194 -143 -193 0
-195 145 0
-195 193 0
195 -145 -193 0
196 -194 -195 0
196 194 195 0
-196 -194 195 0
-196 194 -195 0
-197 187 0
-197 196 0
197 -187 -196 0
198 -58 0
198 -197 0
-198 58 197 0
198 0
